\ LP format - for model browsing. Use MPS format to capture full model detail.
Maximize
obj:   x[1] + x[133] + x[102] + x[93] + x[73] + x[10] + x[11] + x[142] + x[15]
   + x[114] + x[74] + x[21] + x[22] + x[58] + x[127] + x[28] + x[125]
   + x[126] + x[37] + x[2] + x[33] + x[35] + x[4] + x[5] + x[135] + x[141]
   + x[111] + x[113] + x[116] + x[57] + x[91] + x[92] + x[134] + x[3]
   + x[32] + x[70] + x[80] + x[9] + x[42] + x[112] + x[84] + x[30] + x[56]
   + x[94] + x[64] + x[75] + x[130] + x[25] + x[124] + x[98] + x[99]
   + x[101] + x[146] + x[104] + x[105] + x[140] + x[77] + x[49] + x[18]
   + x[123] + x[53] + x[89] + x[47] + x[62] + x[6] + x[103] + x[108]
   + x[13] + x[14] + x[45] + x[48] + x[95] + x[7] + x[65] + x[72] + x[43]
   + x[61] + x[8] + x[137] + x[139] + x[82] + x[54] + x[55] + x[31] + x[69]
   + x[44] + x[50] + x[118] + x[87] + x[26] + x[97] + x[23] + x[107]
   + x[109] + x[46] + x[19] + x[78] + x[12] + x[66] + x[150] + x[39]
   + x[79] + x[144] + x[115] + x[119] + x[122] + x[100] + x[110] + x[145]
   + x[83] + x[60] + x[36] + x[17] + x[20] + x[88] + x[106] + x[120]
   + x[59] + x[16] + x[68] + x[129] + x[76] + x[86] + x[27] + x[138]
   + x[63] + x[121] + x[143] + x[81] + x[24] + x[117] + x[52] + x[34]
   + x[136] + x[71] + x[96] + x[148] + x[40] + x[29] + x[85] + x[41]
   + x[128] + x[147] + x[67] + x[149] + x[90] + x[132] + x[38] + x[51]
   + x[131]
Subject To
 clq1: x[141] + x[50] + x[144] <= 1
 clq2: x[111] + x[94] + x[137] <= 1
 clq3: x[141] + x[140] + x[86] <= 1
 clq4: x[11] + x[111] + x[95] <= 1
 clq5: x[35] + x[83] + x[138] <= 1
 clq6: x[127] + x[37] + x[45] + x[120] <= 1
 clq7: x[92] + x[137] + x[131] <= 1
 clq8: x[56] + x[98] + x[139] <= 1
 clq9: x[19] + x[144] <= 1
 clq10: x[133] + x[141] <= 1
 clq11: x[111] + x[68] <= 1
 clq12: x[5] + x[98] + x[104] <= 1
 clq13: x[73] + x[26] + x[19] <= 1
 clq14: x[25] + x[119] + x[100] + x[88] <= 1
 clq15: x[101] + x[53] + x[83] <= 1
 clq16: x[93] + x[141] + x[62] <= 1
 clq17: x[21] + x[12] <= 1
 clq18: x[111] + x[18] + x[72] <= 1
 clq19: x[133] + x[92] + x[87] <= 1
 clq20: x[21] + x[30] + x[40] <= 1
 clq21: x[56] + x[63] + x[34] <= 1
 clq22: x[141] + x[94] + x[96] <= 1
 clq23: x[1] + x[93] + x[37] <= 1
 clq24: x[11] + x[135] + x[104] <= 1
 clq25: x[125] + x[33] + x[140] <= 1
 clq26: x[80] + x[68] <= 1
 clq27: x[64] + x[66] + x[143] <= 1
 clq28: x[74] + x[14] + x[144] <= 1
 clq29: x[35] + x[45] + x[12] <= 1
 clq30: x[98] + x[19] + x[39] <= 1
 clq31: x[72] + x[61] + x[83] <= 1
 clq32: x[134] + x[110] + x[86] + x[131] <= 1
 clq33: x[139] + x[78] + x[60] + x[85] <= 1
 clq34: x[73] + x[16] <= 1
 clq35: x[142] + x[101] + x[8] <= 1
 clq36: x[5] + x[116] + x[49] <= 1
 clq37: x[111] + x[48] <= 1
 clq38: x[92] + x[52] + x[67] <= 1
 clq39: x[80] + x[56] + x[90] <= 1
 clq40: x[33] + x[30] + x[34] <= 1
 clq41: x[94] + x[87] + x[100] <= 1
 clq42: x[48] + x[8] + x[55] <= 1
 clq43: x[75] + x[104] + x[23] <= 1
 clq44: x[12] + x[66] + x[119] <= 1
 clq45: x[133] + x[49] + x[68] <= 1
 clq46: x[1] + x[133] + x[73] <= 1
 clq47: x[11] + x[45] + x[109] <= 1
 clq48: x[21] + x[146] + x[14] <= 1
 clq49: x[127] + x[18] + x[121] <= 1
 clq50: x[37] + x[30] + x[136] <= 1
 clq51: x[2] + x[33] + x[111] <= 1
 clq52: x[42] + x[16] + x[86] <= 1
 clq53: x[33] + x[64] + x[115] <= 1
 clq54: x[140] + x[95] <= 1
 clq55: x[19] + x[36] + x[117] <= 1
 clq56: x[18] + x[144] + x[143] <= 1
 clq57: x[66] + x[83] + x[136] <= 1
 clq58: x[94] + x[39] + x[20] <= 1
 clq59: x[56] + x[110] + x[88] <= 1
 clq60: x[142] + x[65] + x[120] <= 1
 clq61: x[35] + x[130] + x[24] <= 1
 clq62: x[98] + x[26] + x[147] <= 1
 clq63: x[93] + x[42] + x[82] <= 1
 clq64: x[126] + x[141] + x[53] <= 1
 clq65: x[5] + x[92] + x[101] <= 1
 clq66: x[57] + x[68] + x[71] <= 1
 clq67: x[141] + x[3] + x[80] <= 1
 clq68: x[32] + x[95] <= 1
 clq69: x[140] + x[13] + x[100] <= 1
 clq70: x[102] + x[47] <= 1
 clq71: x[61] + x[55] + x[131] <= 1
 clq72: x[43] + x[137] + x[119] <= 1
 clq73: x[89] + x[54] + x[52] <= 1
 clq74: x[75] + x[31] + x[138] <= 1
 clq75: x[23] + x[34] <= 1
 clq76: x[21] + x[134] + x[96] <= 1
 clq77: x[85] + x[67] <= 1
 clq78: x[37] + x[48] + x[149] <= 1
 clq79: x[1] + x[11] + x[58] + x[127] <= 1
 clq80: x[73] + x[104] + x[137] <= 1
 clq81: x[114] + x[12] + x[115] <= 1
 clq82: x[22] + x[2] <= 1
 clq83: x[125] + x[103] + x[144] + x[85] <= 1
 clq84: x[111] + x[120] + x[86] <= 1
 clq85: x[32] + x[121] + x[147] <= 1
 clq86: x[64] + x[45] + x[87] <= 1
 clq87: x[146] + x[143] <= 1
 clq88: x[47] + x[139] <= 1
 clq89: x[6] + x[103] + x[108] <= 1
 clq90: x[133] + x[14] + x[20] <= 1
 clq91: x[95] + x[87] + x[68] + x[129] <= 1
 clq92: x[93] + x[23] + x[24] <= 1
 clq93: x[19] + x[145] + x[24] <= 1
 clq94: x[83] + x[36] + x[27] <= 1
 clq95: x[30] + x[98] + x[60] <= 1
 clq96: x[102] + x[88] <= 1
 clq97: x[35] + x[44] + x[16] <= 1
 clq98: x[69] + x[81] + x[34] <= 1
 clq99: x[107] + x[143] + x[117] <= 1
 clq100: x[10] + x[92] + x[54] <= 1
 clq101: x[142] + x[72] <= 1
 clq102: x[22] + x[47] <= 1
 clq103: x[126] + x[17] <= 1
 clq104: x[2] + x[5] + x[141] <= 1
 clq105: x[113] + x[89] + x[131] <= 1
 clq106: x[57] + x[53] + x[79] <= 1
 clq107: x[91] + x[45] + x[65] <= 1
 clq108: x[3] + x[94] <= 1
 clq109: x[80] + x[112] + x[76] <= 1
 clq110: x[56] + x[97] + x[40] <= 1
 clq111: x[101] + x[71] <= 1
 clq112: x[102] + x[146] + x[100] <= 1
 clq113: x[140] + x[52] + x[149] <= 1
 clq114: x[37] + x[77] + x[26] <= 1
 clq115: x[49] + x[8] + x[139] <= 1
 clq116: x[123] + x[96] <= 1
 clq117: x[61] + x[122] + x[81] <= 1
 clq118: x[135] + x[80] + x[82] <= 1
 clq119: x[139] + x[55] + x[67] <= 1
 clq120: x[125] + x[31] + x[90] <= 1
 clq121: x[39] + x[29] <= 1
 clq122: x[119] + x[96] + x[148] <= 1
 clq123: x[57] + x[130] + x[88] <= 1
 clq124: x[73] + x[136] <= 1
 clq125: x[1] + x[142] + x[74] <= 1
 clq126: x[114] + x[101] <= 1
 clq127: x[21] + x[47] + x[29] <= 1
 clq128: x[22] + x[98] + x[66] <= 1
 clq129: x[28] + x[3] + x[42] <= 1
 clq130: x[126] + x[136] <= 1
 clq131: x[111] + x[116] + x[39] <= 1
 clq132: x[134] + x[123] + x[27] <= 1
 clq133: x[32] + x[17] <= 1
 clq134: x[9] + x[6] <= 1
 clq135: x[94] + x[18] <= 1
 clq136: x[35] + x[64] + x[65] <= 1
 clq137: x[25] + x[72] <= 1
 clq138: x[104] + x[71] <= 1
 clq139: x[101] + x[108] + x[16] <= 1
 clq140: x[25] + x[14] + x[109] <= 1
 clq141: x[48] + x[36] + x[88] <= 1
 clq142: x[43] + x[107] <= 1
 clq143: x[23] + x[150] <= 1
 clq144: x[33] + x[19] + x[120] <= 1
 clq145: x[73] + x[140] + x[78] <= 1
 clq146: x[137] + x[12] <= 1
 clq147: x[115] + x[81] + x[67] <= 1
 clq148: x[104] + x[145] + x[143] <= 1
 clq149: x[70] + x[13] + x[83] <= 1
 clq150: x[60] + x[51] <= 1
 clq151: x[20] + x[34] <= 1
 clq152: x[86] + x[138] + x[71] <= 1
 clq153: x[30] + x[75] + x[117] <= 1
 clq154: x[72] + x[147] + x[131] <= 1
 clq155: x[93] + x[105] <= 1
 clq156: x[10] + x[118] + x[23] <= 1
 clq157: x[102] + x[11] + x[6] <= 1
 clq158: x[114] + x[138] + x[40] <= 1
 clq159: x[127] + x[109] <= 1
 clq160: x[126] + x[56] <= 1
 clq161: x[2] + x[113] <= 1
 clq162: x[5] + x[77] <= 1
 clq163: x[91] + x[53] <= 1
 clq164: x[92] + x[50] <= 1
 clq165: x[32] + x[8] <= 1
 clq166: x[9] + x[26] <= 1
 clq167: x[84] + x[12] + x[79] <= 1
 clq168: x[94] + x[110] <= 1
 clq169: x[146] + x[17] <= 1
 clq170: x[49] + x[100] + x[129] <= 1
 clq171: x[18] + x[55] <= 1
 clq172: x[95] + x[76] <= 1
 clq173: x[22] + x[43] + x[85] <= 1
 clq174: x[61] + x[68] <= 1
 clq175: x[82] + x[52] <= 1
 clq176: x[8] + x[54] <= 1
 clq177: x[133] + x[13] + x[31] <= 1
 clq178: x[105] + x[150] <= 1
 clq179: x[28] + x[144] + x[119] <= 1
 clq180: x[39] + x[60] + x[41] <= 1
 clq181: x[123] + x[20] + x[136] <= 1
 clq182: x[93] + x[29] + x[149] <= 1
 clq183: x[66] + x[90] <= 1
 clq184: x[142] + x[21] + x[48] <= 1
 clq185: x[74] + x[2] <= 1
 clq186: x[127] + x[117] <= 1
 clq187: x[126] + x[51] <= 1
 clq188: x[37] + x[42] + x[65] <= 1
 clq189: x[5] + x[99] <= 1
 clq190: x[135] + x[17] <= 1
 clq191: x[111] + x[3] <= 1
 clq192: x[113] + x[108] + x[20] <= 1
 clq193: x[116] + x[34] <= 1
 clq194: x[91] + x[77] <= 1
 clq195: x[92] + x[107] <= 1
 clq196: x[134] + x[115] <= 1
 clq197: x[32] + x[53] + x[20] <= 1
 clq198: x[9] + x[50] <= 1
 clq199: x[56] + x[47] <= 1
 clq200: x[94] + x[106] <= 1
 clq201: x[64] + x[46] <= 1
 clq202: x[141] + x[130] + x[137] <= 1
 clq203: x[124] + x[16] + x[129] + x[27] <= 1
 clq204: x[146] + x[52] <= 1
 clq205: x[18] + x[45] + x[63] <= 1
 clq206: x[89] + x[83] <= 1
 clq207: x[62] + x[19] <= 1
 clq208: x[35] + x[14] + x[82] <= 1
 clq209: x[126] + x[95] + x[96] <= 1
 clq210: x[37] + x[61] + x[148] <= 1
 clq211: x[11] + x[54] + x[78] <= 1
 clq212: x[55] + x[132] <= 1
 clq213: x[56] + x[26] + x[145] <= 1
 clq214: x[104] + x[47] + x[150] <= 1
 clq215: x[66] + x[122] + x[24] <= 1
 clq216: x[110] + x[120] <= 1
 clq217: x[98] + x[59] <= 1
 clq218: x[99] + x[76] <= 1
 clq219: x[121] + x[131] <= 1
 clq220: x[107] + x[100] + x[147] <= 1
 clq221: x[101] + x[90] <= 1
 clq222: x[1] + x[10] + x[126] <= 1
 clq223: x[73] + x[74] + x[18] <= 1
 clq224: x[114] + x[57] <= 1
 clq225: x[58] + x[28] + x[139] <= 1
 clq226: x[127] + x[36] <= 1
 clq227: x[125] + x[43] <= 1
 clq228: x[2] + x[4] + x[92] <= 1
 clq229: x[5] + x[105] + x[123] <= 1
 clq230: x[135] + x[67] <= 1
 clq231: x[111] + x[115] <= 1
 clq232: x[2] + x[116] + x[134] <= 1
 clq233: x[91] + x[34] <= 1
 clq234: x[3] + x[70] + x[9] <= 1
 clq235: x[80] + x[146] <= 1
 clq236: x[84] + x[71] <= 1
 clq237: x[133] + x[30] <= 1
 clq238: x[94] + x[6] <= 1
 clq239: x[64] + x[52] <= 1
 clq240: x[75] + x[106] + x[34] <= 1
 clq241: x[135] + x[25] + x[31] <= 1
 clq242: x[140] + x[23] <= 1
 clq243: x[77] + x[137] + x[46] <= 1
 clq244: x[49] + x[72] <= 1
 clq245: x[89] + x[149] <= 1
 clq246: x[62] + x[44] <= 1
 clq247: x[42] + x[8] <= 1
 clq248: x[55] + x[40] <= 1
 clq249: x[50] + x[117] <= 1
 clq250: x[87] + x[19] + x[79] <= 1
 clq251: x[109] + x[143] + x[90] <= 1
 clq252: x[12] + x[144] <= 1
 clq253: x[119] + x[51] <= 1
 clq254: x[110] + x[36] <= 1
 clq255: x[83] + x[17] <= 1
 clq256: x[60] + x[68] <= 1
 clq257: x[99] + x[88] <= 1
 clq258: x[15] + x[120] <= 1
 clq259: x[114] + x[59] <= 1
 clq260: x[76] + x[85] <= 1
 clq261: x[23] + x[86] <= 1
 clq262: x[130] + x[44] + x[121] <= 1
 clq263: x[102] + x[131] <= 1
 clq264: x[93] + x[49] + x[108] <= 1
 clq265: x[142] + x[50] <= 1
 clq266: x[21] + x[8] <= 1
 clq267: x[22] + x[144] <= 1
 clq268: x[127] + x[71] <= 1
 clq269: x[125] + x[41] <= 1
 clq270: x[33] + x[69] + x[147] <= 1
 clq271: x[111] + x[52] <= 1
 clq272: x[113] + x[101] + x[149] <= 1
 clq273: x[57] + x[48] + x[54] <= 1
 clq274: x[91] + x[138] <= 1
 clq275: x[32] + x[40] <= 1
 clq276: x[80] + x[45] <= 1
 clq277: x[84] + x[132] <= 1
 clq278: x[35] + x[30] <= 1
 clq279: x[94] + x[17] <= 1
 clq280: x[64] + x[95] <= 1
 clq281: x[98] + x[67] <= 1
 clq282: x[146] + x[119] <= 1
 clq283: x[140] + x[43] <= 1
 clq284: x[53] + x[148] <= 1
 clq285: x[89] + x[88] <= 1
 clq286: x[62] + x[6] <= 1
 clq287: x[14] + x[39] <= 1
 clq288: x[72] + x[136] <= 1
 clq289: x[61] + x[51] <= 1
 clq290: x[82] + x[96] <= 1
 clq291: x[55] + x[78] <= 1
 clq292: x[118] + x[12] <= 1
 clq293: x[26] + x[122] + x[85] <= 1
 clq294: x[69] + x[150] + x[128] <= 1
 clq295: x[70] + x[61] + x[115] <= 1
 clq296: x[13] + x[110] + x[145] <= 1
 clq297: x[97] + x[83] + x[29] <= 1
 clq298: x[104] + x[60] <= 1
 clq299: x[137] + x[100] + x[120] <= 1
 clq300: x[139] + x[59] <= 1
 clq301: x[68] + x[67] <= 1
 clq302: x[76] + x[117] <= 1
 clq303: x[93] + x[99] + x[86] <= 1
 clq304: x[73] + x[81] <= 1
 clq305: x[98] + x[24] <= 1
 clq306: x[1] + x[102] <= 1
 clq307: x[133] + x[78] <= 1
 clq308: x[10] + x[103] <= 1
 clq309: x[11] + x[107] <= 1
 clq310: x[142] + x[114] <= 1
 clq311: x[15] + x[17] <= 1
 clq312: x[74] + x[131] <= 1
 clq313: x[21] + x[143] <= 1
 clq314: x[22] + x[49] + x[46] <= 1
 clq315: x[58] + x[45] <= 1
 clq316: x[127] + x[138] <= 1
 clq317: x[125] + x[84] <= 1
 clq318: x[4] + x[75] <= 1
 clq319: x[5] + x[140] + x[18] <= 1
 clq320: x[141] + x[6] <= 1
 clq321: x[111] + x[65] <= 1
 clq322: x[116] + x[52] <= 1
 clq323: x[91] + x[112] <= 1
 clq324: x[92] + x[23] <= 1
 clq325: x[134] + x[3] <= 1
 clq326: x[3] + x[32] <= 1
 clq327: x[80] + x[9] <= 1
 clq328: x[42] + x[132] <= 1
 clq329: x[30] + x[36] <= 1
 clq330: x[56] + x[77] <= 1
 clq331: x[94] + x[51] <= 1
 clq332: x[64] + x[105] <= 1
 clq333: x[25] + x[39] <= 1
 clq334: x[124] + x[71] <= 1
 clq335: x[42] + x[146] + x[95] <= 1
 clq336: x[53] + x[19] <= 1
 clq337: x[89] + x[67] <= 1
 clq338: x[47] + x[36] + x[106] <= 1
 clq339: x[62] + x[88] <= 1
 clq340: x[14] + x[50] + x[36] <= 1
 clq341: x[72] + x[90] <= 1
 clq342: x[43] + x[63] <= 1
 clq343: x[8] + x[82] <= 1
 clq344: x[55] + x[118] + x[60] <= 1
 clq345: x[31] + x[19] + x[68] <= 1
 clq346: x[87] + x[34] <= 1
 clq347: x[109] + x[59] <= 1
 clq348: x[12] + x[39] <= 1
 clq349: x[66] + x[41] <= 1
 clq350: x[79] + x[119] + x[40] <= 1
 clq351: x[37] + x[144] + x[90] <= 1
 clq352: x[16] + x[76] <= 1
 clq353: x[27] + x[136] <= 1
 clq354: x[104] + x[121] <= 1
 clq355: x[80] + x[81] + x[96] <= 1
 clq356: x[24] + x[148] <= 1
 clq357: x[33] + x[77] + x[117] <= 1
 clq358: x[1] + x[15] <= 1
 clq359: x[133] + x[108] <= 1
 clq360: x[102] + x[107] <= 1
 clq361: x[73] + x[131] <= 1
 clq362: x[10] + x[105] <= 1
 clq363: x[11] + x[82] <= 1
 clq364: x[142] + x[139] <= 1
 clq365: x[114] + x[24] <= 1
 clq366: x[74] + x[132] <= 1
 clq367: x[21] + x[145] <= 1
 clq368: x[58] + x[98] <= 1
 clq369: x[127] + x[141] <= 1
 clq370: x[28] + x[4] <= 1
 clq371: x[125] + x[25] <= 1
 clq372: x[35] + x[9] + x[8] <= 1
 clq373: x[135] + x[6] <= 1
 clq374: x[111] + x[41] <= 1
 clq375: x[113] + x[12] + x[150] <= 1
 clq376: x[116] + x[101] <= 1
 clq377: x[57] + x[75] <= 1
 clq378: x[91] + x[83] <= 1
 clq379: x[92] + x[7] <= 1
 clq380: x[134] + x[65] + x[51] <= 1
 clq381: x[32] + x[115] <= 1
 clq382: x[73] + x[112] + x[128] <= 1
 clq383: x[84] + x[123] <= 1
 clq384: x[30] + x[71] <= 1
 clq385: x[56] + x[78] <= 1
 clq386: x[94] + x[25] + x[53] <= 1
 clq387: x[64] + x[34] <= 1
 clq388: x[130] + x[98] <= 1
 clq389: x[124] + x[48] <= 1
 clq390: x[89] + x[45] <= 1
 clq391: x[101] + x[62] <= 1
 clq392: x[103] + x[72] <= 1
 clq393: x[43] + x[149] <= 1
 clq394: x[54] + x[26] <= 1
 clq395: x[135] + x[44] <= 1
 clq396: x[87] + x[147] <= 1
 clq397: x[23] + x[148] <= 1
 clq398: x[109] + x[85] <= 1
 clq399: x[66] + x[16] <= 1
 clq400: x[87] + x[122] <= 1
 clq401: x[110] + x[52] <= 1
 clq402: x[17] + x[76] <= 1
 clq403: x[88] + x[63] <= 1
 clq404: x[75] + x[120] <= 1
 clq405: x[59] + x[143] <= 1
 clq406: x[70] + x[86] <= 1
 clq407: x[27] + x[67] <= 1
 clq408: x[138] + x[121] <= 1
 clq409: x[100] + x[136] <= 1
 clq410: x[68] + x[29] <= 1
 clq411: x[1] + x[114] <= 1
 clq412: x[133] + x[104] + x[27] <= 1
 clq413: x[102] + x[2] <= 1
 clq414: x[10] + x[97] <= 1
 clq415: x[11] + x[46] <= 1
 clq416: x[142] + x[115] <= 1
 clq417: x[15] + x[59] <= 1
 clq418: x[74] + x[78] <= 1
 clq419: x[21] + x[148] <= 1
 clq420: x[22] + x[44] <= 1
 clq421: x[58] + x[110] <= 1
 clq422: x[127] + x[23] <= 1
 clq423: x[28] + x[43] <= 1
 clq424: x[125] + x[26] <= 1
 clq425: x[126] + x[91] <= 1
 clq426: x[4] + x[130] <= 1
 clq427: x[5] + x[47] <= 1
 clq428: x[141] + x[105] <= 1
 clq429: x[111] + x[118] <= 1
 clq430: x[116] + x[7] <= 1
 clq431: x[57] + x[17] <= 1
 clq432: x[92] + x[143] <= 1
 clq433: x[3] + x[84] <= 1
 clq434: x[32] + x[99] <= 1
 clq435: x[30] + x[54] <= 1
 clq436: x[56] + x[86] <= 1
 clq437: x[4] + x[64] <= 1
 clq438: x[124] + x[144] <= 1
 clq439: x[5] + x[146] + x[62] <= 1
 clq440: x[140] + x[48] <= 1
 clq441: x[123] + x[69] <= 1
 clq442: x[89] + x[107] <= 1
 clq443: x[6] + x[13] + x[48] <= 1
 clq444: x[103] + x[41] <= 1
 clq445: x[108] + x[82] <= 1
 clq446: x[14] + x[106] <= 1
 clq447: x[45] + x[40] <= 1
 clq448: x[95] + x[12] <= 1
 clq449: x[72] + x[129] <= 1
 clq450: x[101] + x[61] <= 1
 clq451: x[139] + x[145] <= 1
 clq452: x[55] + x[138] <= 1
 clq453: x[8] + x[31] <= 1
 clq454: x[50] + x[119] <= 1
 clq455: x[109] + x[147] <= 1
 clq456: x[66] + x[67] + x[131] <= 1
 clq457: x[39] + x[132] <= 1
 clq458: x[79] + x[117] <= 1
 clq459: x[80] + x[122] <= 1
 clq460: x[83] + x[121] <= 1
 clq461: x[60] + x[136] <= 1
 clq462: x[20] + x[71] <= 1
 clq463: x[108] + x[88] <= 1
 clq464: x[120] + x[16] <= 1
 clq465: x[76] + x[52] <= 1
 clq466: x[110] + x[63] <= 1
 clq467: x[84] + x[19] + x[81] <= 1
 clq468: x[100] + x[24] <= 1
 clq469: x[42] + x[96] <= 1
 clq470: x[76] + x[29] <= 1
 clq471: x[102] + x[85] <= 1
 clq472: x[145] + x[149] <= 1
 clq473: x[1] + x[125] <= 1
 clq474: x[93] + x[74] <= 1
 clq475: x[10] + x[75] <= 1
 clq476: x[11] + x[126] <= 1
 clq477: x[142] + x[58] <= 1
 clq478: x[15] + x[37] <= 1
 clq479: x[114] + x[121] <= 1
 clq480: x[21] + x[89] <= 1
 clq481: x[22] + x[119] <= 1
 clq482: x[127] + x[96] <= 1
 clq483: x[28] + x[122] <= 1
 clq484: x[2] + x[57] <= 1
 clq485: x[33] + x[3] <= 1
 clq486: x[35] + x[40] <= 1
 clq487: x[135] + x[109] <= 1
 clq488: x[141] + x[107] <= 1
 clq489: x[111] + x[96] + x[90] <= 1
 clq490: x[113] + x[30] <= 1
 clq491: x[116] + x[138] <= 1
 clq492: x[91] + x[145] <= 1
 clq493: x[92] + x[60] <= 1
 clq494: x[134] + x[55] <= 1
 clq495: x[32] + x[120] <= 1
 clq496: x[70] + x[98] <= 1
 clq497: x[9] + x[44] <= 1
 clq498: x[112] + x[20] <= 1
 clq499: x[56] + x[124] <= 1
 clq500: x[94] + x[49] <= 1
 clq501: x[133] + x[64] <= 1
 clq502: x[130] + x[117] <= 1
 clq503: x[99] + x[144] <= 1
 clq504: x[105] + x[82] <= 1
 clq505: x[140] + x[26] <= 1
 clq506: x[77] + x[118] <= 1
 clq507: x[18] + x[139] <= 1
 clq508: x[123] + x[86] <= 1
 clq509: x[53] + x[29] <= 1
 clq510: x[47] + x[97] <= 1
 clq511: x[103] + x[115] <= 1
 clq512: x[14] + x[17] <= 1
 clq513: x[45] + x[150] <= 1
 clq514: x[114] + x[95] <= 1
 clq515: x[7] + x[65] + x[43] <= 1
 clq516: x[72] + x[26] <= 1
 clq517: x[61] + x[41] <= 1
 clq518: x[137] + x[50] <= 1
 clq519: x[33] + x[54] <= 1
 clq520: x[146] + x[31] <= 1
 clq521: x[87] + x[78] <= 1
 clq522: x[49] + x[23] <= 1
 clq523: x[46] + x[83] <= 1
 clq524: x[39] + x[85] <= 1
 clq525: x[98] + x[79] <= 1
 clq526: x[92] + x[88] <= 1
 clq527: x[106] + x[68] <= 1
 clq528: x[59] + x[27] <= 1
 clq529: x[97] + x[16] <= 1
 clq530: x[126] + x[63] <= 1
 clq531: x[143] + x[136] <= 1
 clq532: x[24] + x[41] <= 1
 clq533: x[52] + x[38] <= 1
 clq534: x[34] + x[128] <= 1
 clq535: x[71] + x[51] <= 1
 clq536: x[105] + x[148] <= 1
 clq537: x[137] + x[147] <= 1
 clq538: x[115] + x[149] <= 1
 clq539: x[34] + x[132] <= 1
 clq540: x[1] + x[28] <= 1
 clq541: x[102] + x[17] <= 1
 clq542: x[93] + x[106] <= 1
 clq543: x[73] + x[50] <= 1
 clq544: x[10] + x[25] <= 1
 clq545: x[11] + x[70] <= 1
 clq546: x[142] + x[60] <= 1
 clq547: x[15] + x[30] <= 1
 clq548: x[74] + x[52] <= 1
 clq549: x[21] + x[80] <= 1
 clq550: x[22] + x[120] <= 1
 clq551: x[58] + x[91] <= 1
 clq552: x[127] + x[125] <= 1
 clq553: x[37] + x[39] <= 1
 clq554: x[2] + x[35] <= 1
 clq555: x[4] + x[124] <= 1
 clq556: x[135] + x[100] <= 1
 clq557: x[141] + x[101] <= 1
 clq558: x[113] + x[42] <= 1
 clq559: x[116] + x[57] <= 1
 clq560: x[134] + x[118] <= 1
 clq561: x[3] + x[56] <= 1
 clq562: x[32] + x[122] <= 1
 clq563: x[9] + x[69] <= 1
 clq564: x[35] + x[112] <= 1
 clq565: x[94] + x[89] <= 1
 clq566: x[84] + x[64] <= 1
 clq567: x[75] + x[140] <= 1
 clq568: x[130] + x[78] <= 1
 clq569: x[99] + x[43] + x[51] <= 1
 clq570: x[104] + x[129] <= 1
 clq571: x[77] + x[132] <= 1
 clq572: x[18] + x[66] <= 1
 clq573: x[123] + x[12] <= 1
 clq574: x[53] + x[143] <= 1
 clq575: x[114] + x[47] <= 1
 clq576: x[62] + x[150] <= 1
 clq577: x[6] + x[45] <= 1
 clq578: x[103] + x[148] <= 1
 clq579: x[108] + x[29] <= 1
 clq580: x[113] + x[13] <= 1
 clq581: x[6] + x[14] + x[95] <= 1
 clq582: x[72] + x[107] <= 1
 clq583: x[61] + x[26] <= 1
 clq584: x[8] + x[137] <= 1
 clq585: x[73] + x[139] <= 1
 clq586: x[82] + x[131] <= 1
 clq587: x[54] + x[81] <= 1
 clq588: x[65] + x[55] <= 1
 clq589: x[31] + x[86] <= 1
 clq590: x[44] + x[83] <= 1
 clq591: x[9] + x[87] <= 1
 clq592: x[23] + x[144] <= 1
 clq593: x[75] + x[109] <= 1
 clq594: x[46] + x[20] <= 1
 clq595: x[79] + x[110] <= 1
 clq596: x[119] + x[59] <= 1
 clq597: x[127] + x[88] <= 1
 clq598: x[16] + x[138] <= 1
 clq599: x[68] + x[34] <= 1
 clq600: x[76] + x[136] <= 1
 clq601: x[63] + x[131] <= 1
 clq602: x[49] + x[121] <= 1
 clq603: x[27] + x[24] <= 1
 clq604: x[117] + x[149] <= 1
 clq605: x[71] + x[147] <= 1
 clq606: x[40] + x[85] <= 1
 clq607: x[37] + x[128] <= 1
 clq608: x[130] + x[38] <= 1
 clq609: x[1] + x[21] <= 1
 clq610: x[133] + x[124] <= 1
 clq611: x[102] + x[20] <= 1
 clq612: x[93] + x[109] <= 1
 clq613: x[10] + x[44] <= 1
 clq614: x[11] + x[19] <= 1
 clq615: x[142] + x[63] <= 1
 clq616: x[15] + x[64] <= 1
 clq617: x[74] + x[17] <= 1
 clq618: x[22] + x[126] <= 1
 clq619: x[58] + x[92] <= 1
 clq620: x[28] + x[77] <= 1
 clq621: x[125] + x[38] <= 1
 clq622: x[2] + x[91] <= 1
 clq623: x[33] + x[57] <= 1
 clq624: x[4] + x[25] <= 1
 clq625: x[5] + x[89] <= 1
 clq626: x[135] + x[71] <= 1
 clq627: x[141] + x[8] <= 1
 clq628: x[111] + x[62] <= 1
 clq629: x[116] + x[108] <= 1
 clq630: x[134] + x[98] <= 1
 clq631: x[3] + x[30] <= 1
 clq632: x[10] + x[32] <= 1
 clq633: x[70] + x[53] <= 1
 clq634: x[80] + x[149] <= 1
 clq635: x[42] + x[83] <= 1
 clq636: x[112] + x[101] <= 1
 clq637: x[56] + x[61] <= 1
 clq638: x[94] + x[97] <= 1
 clq639: x[146] + x[129] <= 1
 clq640: x[104] + x[88] <= 1
 clq641: x[105] + x[48] <= 1
 clq642: x[140] + x[119] <= 1
 clq643: x[18] + x[122] <= 1
 clq644: x[123] + x[78] <= 1
 clq645: x[47] + x[143] <= 1
 clq646: x[103] + x[100] <= 1
 clq647: x[13] + x[60] <= 1
 clq648: x[45] + x[121] <= 1
 clq649: x[7] + x[72] <= 1
 clq650: x[25] + x[139] <= 1
 clq651: x[82] + x[87] <= 1
 clq652: x[54] + x[117] <= 1
 clq653: x[55] + x[17] <= 1
 clq654: x[31] + x[110] <= 1
 clq655: x[18] + x[69] <= 1
 clq656: x[50] + x[145] <= 1
 clq657: x[9] + x[118] <= 1
 clq658: x[146] + x[23] <= 1
 clq659: x[107] + x[41] <= 1
 clq660: x[46] + x[24] <= 1
 clq661: x[97] + x[12] <= 1
 clq662: x[66] + x[36] <= 1
 clq663: x[150] + x[106] <= 1
 clq664: x[35] + x[39] <= 1
 clq665: x[79] + x[85] <= 1
 clq666: x[144] + x[138] <= 1
 clq667: x[101] + x[115] <= 1
 clq668: x[113] + x[120] <= 1
 clq669: x[59] + x[29] <= 1
 clq670: x[16] + x[68] <= 1
 clq671: x[76] + x[132] <= 1
 clq672: x[86] + x[128] <= 1
 clq673: x[81] + x[147] <= 1
 clq674: x[19] + x[52] <= 1
 clq675: x[145] + x[136] <= 1
 clq676: x[77] + x[148] <= 1
 clq677: x[130] + x[40] <= 1
 clq678: x[42] + x[67] <= 1
 clq679: x[74] + x[90] <= 1
 clq680: x[1] + x[22] <= 1
 clq681: x[133] + x[51] <= 1
 clq682: x[102] + x[16] <= 1
 clq683: x[93] + x[27] <= 1
 clq684: x[73] + x[49] <= 1
 clq685: x[11] + x[32] <= 1
 clq686: x[142] + x[56] <= 1
 clq687: x[15] + x[127] <= 1
 clq688: x[114] + x[13] <= 1
 clq689: x[21] + x[64] <= 1
 clq690: x[58] + x[95] <= 1
 clq691: x[28] + x[104] <= 1
 clq692: x[125] + x[124] <= 1
 clq693: x[126] + x[148] <= 1
 clq694: x[37] + x[105] <= 1
 clq695: x[2] + x[135] <= 1
 clq696: x[33] + x[20] <= 1
 clq697: x[4] + x[141] <= 1
 clq698: x[5] + x[53] <= 1
 clq699: x[111] + x[63] <= 1
 clq700: x[116] + x[31] <= 1
 clq701: x[57] + x[81] <= 1
 clq702: x[91] + x[62] <= 1
 clq703: x[92] + x[149] <= 1
 clq704: x[134] + x[23] <= 1
 clq705: x[3] + x[112] <= 1
 clq706: x[70] + x[47] <= 1
 clq707: x[80] + x[65] <= 1
 clq708: x[84] + x[140] <= 1
 clq709: x[30] + x[137] <= 1
 clq710: x[94] + x[54] <= 1
 clq711: x[75] + x[39] <= 1
 clq712: x[98] + x[44] <= 1
 clq713: x[99] + x[72] <= 1
 clq714: x[123] + x[8] <= 1
 clq715: x[89] + x[139] <= 1
 clq716: x[103] + x[150] <= 1
 clq717: x[108] + x[55] <= 1
 clq718: x[14] + x[88] <= 1
 clq719: x[45] + x[29] <= 1
 clq720: x[48] + x[121] <= 1
 clq721: x[7] + x[61] <= 1
 clq722: x[82] + x[129] <= 1
 clq723: x[69] + x[109] <= 1
 clq724: x[50] + x[40] <= 1
 clq725: x[118] + x[83] <= 1
 clq726: x[87] + x[67] <= 1
 clq727: x[26] + x[128] <= 1
 clq728: x[107] + x[132] <= 1
 clq729: x[46] + x[78] <= 1
 clq730: x[12] + x[122] <= 1
 clq731: x[66] + x[117] <= 1
 clq732: x[79] + x[86] <= 1
 clq733: x[144] + x[115] <= 1
 clq734: x[119] + x[131] <= 1
 clq735: x[100] + x[38] <= 1
 clq736: x[110] + x[71] <= 1
 clq737: x[60] + x[52] <= 1
 clq738: x[36] + x[24] <= 1
 clq739: x[106] + x[90] <= 1
 clq740: x[120] + x[34] <= 1
 clq741: x[59] + x[96] <= 1
 clq742: x[68] + x[143] <= 1
 clq743: x[76] + x[41] <= 1
 clq744: x[138] + x[85] <= 1
 clq745: x[136] + x[147] <= 1
Bounds
Binaries
 x[1] x[133] x[102] x[93] x[73] x[10] x[11] x[142] x[15] x[114] x[74] x[21]
 x[22] x[58] x[127] x[28] x[125] x[126] x[37] x[2] x[33] x[35] x[4] x[5]
 x[135] x[141] x[111] x[113] x[116] x[57] x[91] x[92] x[134] x[3] x[32]
 x[70] x[80] x[9] x[42] x[112] x[84] x[30] x[56] x[94] x[64] x[75] x[130]
 x[25] x[124] x[98] x[99] x[101] x[146] x[104] x[105] x[140] x[77] x[49]
 x[18] x[123] x[53] x[89] x[47] x[62] x[6] x[103] x[108] x[13] x[14] x[45]
 x[48] x[95] x[7] x[65] x[72] x[43] x[61] x[8] x[137] x[139] x[82] x[54]
 x[55] x[31] x[69] x[44] x[50] x[118] x[87] x[26] x[97] x[23] x[107] x[109]
 x[46] x[19] x[78] x[12] x[66] x[150] x[39] x[79] x[144] x[115] x[119]
 x[122] x[100] x[110] x[145] x[83] x[60] x[36] x[17] x[20] x[88] x[106]
 x[120] x[59] x[16] x[68] x[129] x[76] x[86] x[27] x[138] x[63] x[121]
 x[143] x[81] x[24] x[117] x[52] x[34] x[136] x[71] x[96] x[148] x[40]
 x[29] x[85] x[41] x[128] x[147] x[67] x[149] x[90] x[132] x[38] x[51]
 x[131]
End
